c
c
c
c
p sp 11 34
c
c
a 1 2 22360
a 2 1 22360
a 1 3 31620
a 3 1 31620
a 2 3 22360
a 3 2 22360
a 3 5 22360
a 5 3 22360
a 4 5 22360
a 5 4 22360
a 2 4 22360
a 4 2 22360
a 5 7 22360
a 7 5 22360
a 4 7 14140
a 7 4 14140
a 7 6 22360
a 6 7 22360
a 6 4 22360
a 4 6 22360
a 7 8 22360
a 8 7 22360
a 8 9 20000
a 9 8 20000
a 9 6 14140
a 6 9 14140
a 9 10 9990
a 10 9 9990
a 8 10 22360
a 10 8 22360
a 8 11 40000
a 11 8 40000
a 10 11 36050
a 11 10 36050
